language ESSENCE' 1.0

letting n_boats be 14
letting n_periods be 5
letting crew_FunctionAsRelation_RelationAsSet_Explicit_1 be [1, 2, 3, 4, 5, 6, 7, 8, 9, 10, 11, 12, 13, 14; int(1..14)]
letting crew_FunctionAsRelation_RelationAsSet_Explicit_2 be [2, 2, 2, 2, 4, 4, 4, 1, 2, 2, 2, 3, 4, 2; int(1..14)]
letting capacity_FunctionAsRelation_RelationAsSet_Explicit_1 be
        [1, 2, 3, 4, 5, 6, 7, 8, 9, 10, 11, 12, 13, 14; int(1..14)]
letting capacity_FunctionAsRelation_RelationAsSet_Explicit_2 be
        [6, 8, 12, 12, 12, 12, 12, 10, 10, 10, 10, 10, 8, 8; int(1..14)]
letting fin1 be 14
letting fin2 be 12
letting fin3 be 14
letting fin4 be 4
